NAME : instances/50-tsp/instance-22.tsp
COMMENT : No comment
TYPE : TSP
DIMENSION: 50
EDGE_WEIGHT_TYPE : EUC_2D
NODE_COORD_SECTION
1 1023 1884 
2 234 30 
3 269 1037 
4 1946 993 
5 1027 267 
6 1394 1722 
7 154 142 
8 1986 598 
9 267 967 
10 933 1046 
11 981 475 
12 1745 174 
13 164 687 
14 89 646 
15 1211 1619 
16 1745 1919 
17 80 825 
18 202 700 
19 98 1031 
20 1484 1455 
21 795 500 
22 626 204 
23 1931 1159 
24 12 1658 
25 1273 24 
26 203 179 
27 620 454 
28 1502 458 
29 944 821 
30 245 1968 
31 1295 356 
32 1179 596 
33 621 1755 
34 1437 1018 
35 362 765 
36 1236 1562 
37 1989 1482 
38 1133 909 
39 1837 1432 
40 623 1291 
41 457 1986 
42 1384 1194 
43 1093 1523 
44 1801 1538 
45 1356 580 
46 1773 904 
47 142 553 
48 274 574 
49 1954 181 
50 368 1543 
EOF
